
******************************************************************************
This program contains Ipopt, a library for large-scale nonlinear optimization.
 Ipopt is released as open source code under the Eclipse Public License (EPL).
         For more information visit https://github.com/coin-or/Ipopt
******************************************************************************

This is Ipopt version 3.14.19, running with linear solver MUMPS 5.8.1.

Number of nonzeros in equality constraint Jacobian...:     4389
Number of nonzeros in inequality constraint Jacobian.:        0
Number of nonzeros in Lagrangian Hessian.............:     1050

Total number of variables............................:     1287
                     variables with only lower bounds:        0
                variables with lower and upper bounds:      457
                     variables with only upper bounds:        0
Total number of equality constraints.................:     1274
Total number of inequality constraints...............:        0
        inequality constraints with only lower bounds:        0
   inequality constraints with lower and upper bounds:        0
        inequality constraints with only upper bounds:        0

iter    objective    inf_pr   inf_du lg(mu)  ||d||  lg(rg) alpha_du alpha_pr  ls
   0  9.8482563e+00 9.90e+01 1.90e-04  -1.0 0.00e+00    -  0.00e+00 0.00e+00   0
   1  9.8693744e+00 5.42e+00 1.53e+01  -1.0 9.86e+01    -  5.85e-02 1.00e+00h  1
   2  9.8648981e+00 4.92e-01 8.12e-02  -1.0 2.90e+00    -  9.31e-01 1.00e+00h  1
   3  9.8664023e+00 5.98e-02 3.03e-01  -1.0 2.25e+00    -  5.97e-01 1.00e+00f  1
   4  9.8893128e+00 5.82e-01 9.01e-01  -1.0 2.78e+00    -  9.95e-01 3.75e-01h  2
   5  9.8824465e+00 5.99e-02 1.75e-04  -1.7 4.22e-01    -  1.00e+00 1.00e+00h  1
   6  9.8606343e+00 5.42e-01 7.43e-02  -2.5 8.51e-01    -  8.48e-01 1.00e+00h  1
   7  9.8571125e+00 2.93e-01 3.89e-04  -2.5 1.11e+00    -  1.00e+00 1.00e+00h  1
   8  9.8570350e+00 4.47e-03 5.34e-07  -2.5 3.43e-01    -  1.00e+00 1.00e+00h  1
   9  9.8561810e+00 1.34e-01 5.08e-03  -3.8 8.00e-01    -  9.47e-01 1.00e+00h  1
iter    objective    inf_pr   inf_du lg(mu)  ||d||  lg(rg) alpha_du alpha_pr  ls
  10  9.8494585e+00 3.83e-03 2.01e-03  -3.8 2.89e+00    -  1.00e+00 1.00e+00h  1
  11  9.8507957e+00 6.75e-05 7.61e-05  -3.8 5.34e-01    -  1.00e+00 1.00e+00h  1
  12  9.8483418e+00 2.06e-04 4.77e-04  -5.7 1.13e+00    -  7.17e-01 1.00e+00h  1
  13  9.8482224e+00 1.36e-04 5.50e-04  -5.7 4.23e-01    -  6.71e-01 3.44e-01h  1
  14  9.8481930e+00 1.09e-04 3.68e-03  -5.7 2.89e-01    -  1.00e+00 1.96e-01f  1
  15  9.8482107e+00 1.59e-05 1.61e-08  -5.7 1.05e-02    -  1.00e+00 1.00e+00f  1
  16  9.8482049e+00 1.83e-06 1.19e-04  -8.6 6.88e-03    -  9.91e-01 8.93e-01h  1
  17  9.8482049e+00 2.70e-09 2.36e-12  -8.6 1.35e-04    -  1.00e+00 1.00e+00h  1

Number of Iterations....: 17

                                   (scaled)                 (unscaled)
Objective...............:   9.8482049288569744e+00    9.8482049288569744e+00
Dual infeasibility......:   2.3621085556285726e-12    2.3621085556285726e-12
Constraint violation....:   2.7008510983251236e-09    2.7008510983251236e-09
Variable bound violation:   0.0000000000000000e+00    0.0000000000000000e+00
Complementarity.........:   2.5136230293707711e-09    2.5136230293707711e-09
Overall NLP error.......:   2.7008510983251236e-09    2.7008510983251236e-09


Number of objective function evaluations             = 21
Number of objective gradient evaluations             = 18
Number of equality constraint evaluations            = 21
Number of inequality constraint evaluations          = 0
Number of equality constraint Jacobian evaluations   = 18
Number of inequality constraint Jacobian evaluations = 0
Number of Lagrangian Hessian evaluations             = 17
Total seconds in IPOPT                               = 0.068

EXIT: Optimal Solution Found.
